
Gurobi 9.0.2 (win64) logging started Sat Oct 10 16:06:30 2020

Changed value of parameter logfile to result\v6.2-20201010T1221\scenario_2030_eff050_cab3000.log
   Prev:   Default: 
Gurobi Optimizer version 9.0.2 build v9.0.2rc0 (win64)
Optimize a model with 1384150 rows, 884815 columns and 3912197 nonzeros
Model fingerprint: 0x3588e3a4
Coefficient statistics:
  Matrix range     [1e-07, 3e+05]
  Objective range  [1e+00, 1e+00]
  Bounds range     [0e+00, 0e+00]
  RHS range        [2e-05, 3e+08]
Warning: Model contains large matrix coefficient range
         Consider reformulating model or setting NumericFocus parameter
         to avoid numerical issues.

Concurrent LP optimizer: primal simplex, dual simplex, and barrier
Showing barrier log only...

Presolve removed 1129315 rows and 656241 columns
Presolve time: 5.69s
Presolved: 254835 rows, 342440 columns, 891938 nonzeros

Ordering time: 0.23s

Barrier statistics:
 Dense cols : 9
 AA' NZ     : 8.194e+05
 Factor NZ  : 4.461e+06 (roughly 300 MBytes of memory)
 Factor Ops : 1.125e+08 (less than 1 second per iteration)
 Threads    : 30

                  Objective                Residual
Iter       Primal          Dual         Primal    Dual     Compl     Time
   0  -1.99126036e+16 -1.58515570e+15  5.97e+06 1.56e+04  2.39e+12     7s
   1  -3.04700699e+15 -1.58901551e+15  9.05e+05 4.72e+06  7.82e+11     7s
   2  -1.24321060e+15 -1.31594329e+15  3.67e+05 8.62e+05  2.21e+11     7s
   3  -5.37587281e+14 -1.06588495e+15  1.55e+05 2.46e+05  8.60e+10     8s
   4  -1.23903439e+14 -6.84330247e+14  3.31e+04 6.88e+04  1.97e+10     8s
   5  -3.84505108e+13 -4.31522383e+14  1.00e+04 3.05e+04  7.76e+09     8s
   6  -1.79053588e+13 -2.77911542e+14  4.94e+03 1.26e+04  3.48e+09     9s
   7  -7.69698964e+12 -1.58453225e+14  2.28e+03 2.66e+03  1.14e+09     9s
   8  -1.79637215e+12 -8.34700302e+13  6.85e+02 4.38e+02  2.98e+08     9s
   9   6.36479458e+11 -1.67201529e+13  5.56e+00 5.83e+00  2.63e+07    10s
  10   2.62424661e+11 -2.35696652e+12  6.07e-01 5.09e-01  3.85e+06    10s
  11   1.20777422e+11 -6.24090781e+11  2.17e-01 9.31e-09  1.09e+06    10s
  12   8.41763515e+10 -5.33378775e+11  1.45e-01 7.45e-09  8.99e+05    11s
  13   6.49929800e+10 -3.52829088e+11  1.09e-01 7.45e-09  6.08e+05    11s
  14   3.80884302e+10 -3.11185858e+11  5.58e-02 7.45e-09  5.07e+05    11s
  15   2.44489150e+10 -1.51792346e+11  2.91e-02 7.45e-09  2.56e+05    11s
  16   2.02725225e+10 -8.08862257e+10  2.17e-02 1.12e-08  1.47e+05    12s
  17   1.61029462e+10 -3.32720222e+10  1.27e-02 1.12e-08  7.18e+04    12s
  18   1.09402700e+10 -5.55453690e+09  4.94e-03 1.12e-08  2.40e+04    12s
  19   8.42746758e+09  4.79004616e+09  1.21e-03 1.12e-08  5.28e+03    13s
  20   8.21598618e+09  6.25820064e+09  1.01e-03 5.59e-09  2.85e+03    13s
  21   8.01524815e+09  6.45746426e+09  8.04e-04 5.59e-09  2.26e+03    13s
  22   7.89348100e+09  6.51923501e+09  6.73e-04 5.59e-09  1.99e+03    14s
  23   7.79792195e+09  6.59554425e+09  5.75e-04 5.59e-09  1.74e+03    14s
  24   7.61193453e+09  6.85675416e+09  3.87e-04 3.73e-09  1.10e+03    14s
  25   7.50005758e+09  6.91981358e+09  2.72e-04 3.73e-09  8.41e+02    15s
  26   7.40319363e+09  7.01480901e+09  1.73e-04 2.79e-09  5.63e+02    15s
  27   7.36532812e+09  7.06019967e+09  1.35e-04 2.79e-09  4.42e+02    15s
  28   7.32523757e+09  7.09248772e+09  9.33e-05 1.86e-09  3.37e+02    16s
  29   7.28093217e+09  7.15309908e+09  4.90e-05 1.86e-09  1.85e+02    16s
  30   7.25690527e+09  7.17040764e+09  2.57e-05 1.86e-09  1.25e+02    17s
  31   7.25078907e+09  7.18053747e+09  2.01e-05 1.86e-09  1.02e+02    17s
  32   7.23994380e+09  7.18932723e+09  1.04e-05 1.86e-09  7.32e+01    17s
  33   7.23443917e+09  7.19867669e+09  5.36e-06 1.86e-09  5.17e+01    18s
  34   7.23188691e+09  7.20491075e+09  3.25e-06 1.86e-09  3.90e+01    18s
  35   7.23009153e+09  7.20937630e+09  1.84e-06 1.86e-09  2.99e+01    18s
  36   7.22928044e+09  7.21138802e+09  1.20e-06 1.86e-09  2.58e+01    19s
  37   7.22860028e+09  7.21660950e+09  6.74e-07 1.86e-09  1.73e+01    19s
  38   7.22807895e+09  7.21940973e+09  3.28e-07 1.86e-09  1.25e+01    20s
  39   7.22788261e+09  7.22215126e+09  1.72e-07 1.86e-09  8.27e+00    20s
  40   7.22771326e+09  7.22430472e+09  1.54e-07 1.86e-09  4.92e+00    20s
  41   7.22766648e+09  7.22443963e+09  1.29e-07 1.86e-09  4.66e+00    21s
  42   7.22762954e+09  7.22484105e+09  4.67e-08 2.79e-09  4.03e+00    21s
  43   7.22762075e+09  7.22521056e+09  4.91e-08 1.86e-09  3.48e+00    21s
  44   7.22761892e+09  7.22529016e+09  5.20e-08 1.86e-09  3.36e+00    22s
  45   7.22760791e+09  7.22600348e+09  7.08e-08 1.86e-09  2.32e+00    22s
  46   7.22757559e+09  7.22751219e+09  1.05e-07 2.79e-09  9.15e-02    22s
  47   7.22757001e+09  7.22756839e+09  7.62e-08 2.79e-09  2.33e-03    23s
  48   7.22756981e+09  7.22756980e+09  4.16e-06 3.28e-09  1.29e-05    23s
  49   7.22756981e+09  7.22756980e+09  8.57e-04 1.69e-04  1.29e-05    24s

Barrier solved model in 49 iterations and 23.58 seconds
Optimal objective 7.22756981e+09

Crossover log...

   75141 DPushes remaining with DInf 0.0000000e+00                24s
    3119 DPushes remaining with DInf 0.0000000e+00                25s
       0 DPushes remaining with DInf 0.0000000e+00                27s
Warning: Markowitz tolerance tightened to 0.5

  107621 PPushes remaining with PInf 2.0729770e-03                27s
   57866 PPushes remaining with PInf 4.0399715e-02                34s
     321 PPushes remaining with PInf 6.4041739e-02                35s
       0 PPushes remaining with PInf 0.0000000e+00                35s

  Push phase complete: Pinf 0.0000000e+00, Dinf 9.0696184e+04     35s

Iteration    Objective       Primal Inf.    Dual Inf.      Time
  132325    7.2275698e+09   0.000000e+00   9.069618e+04     35s
  132390    7.2275698e+09   0.000000e+00   0.000000e+00     38s

Solved with barrier
Solved in 132390 iterations and 38.26 seconds
Optimal objective  7.227569805e+09
Warning: unscaled primal violation = 0.000874208 and residual = 0.000874208
